(set-logic QF_S)
(declare-fun _var_0xINPUT_113286_() String)
(declare-fun __woorpje_diseq_pref0_() String)
(declare-fun __woorpje_diseq_suf_l0_() String)
(declare-fun __woorpje_diseq_suf_r0_() String)
(assert (=(str.++  "A9jaaDKZbG" "")(str.++ __woorpje_diseq_pref0_  "Z" __woorpje_diseq_suf_l0_  "")) )
(assert (=(str.++ _var_0xINPUT_113286_  "")(str.++ __woorpje_diseq_pref0_  "G" __woorpje_diseq_suf_r0_  "")) )
(check-sat)
